c Random Network
p max    10      20
n         1  s
n        10  t
a       1       2      41
a       2       3       1
a       9       3      32
a       2       8      13
a       3       8      37
a       9       8      46
a       4       2      34
a       8       4      10
a       2       4      24
a       2       1      46
a       3       9       3
a       6       2      31
a       4       1       1
a       9       4      19
a       1       4      37
a       6       3      23
a       8       3      28
a       6       4      31
a       5       1      45
a       4       8      34
